n = 20
Q1 = [0 0 44 0 0 0 0 42 22 0 23 0 0 0 47 0 0 0 0 0; 0 0 0 0 0 0 20 40 0 0 13 47 0 0 41 0 0 0 9 0; 0 0 0 0 23 0 0 0 18 0 0 46 0 0 0 0 0 0 0 0; 0 0 0 0 0 9 21 12 0 47 22 45 0 41 0 0 0 17 0 0; 0 0 0 0 0 0 43 0 0 9 0 0 27 0 0 0 41 0 0 11; 0 0 0 0 0 0 18 0 21 31 0 0 0 0 0 19 47 0 0 0; 0 0 0 0 0 0 0 38 0 0 0 0 42 0 0 32 0 0 0 0; 0 0 0 0 0 0 0 0 0 0 0 45 0 16 0 0 35 37 0 0; 0 0 0 0 0 0 0 0 0 22 0 0 0 0 32 0 0 50 0 0; 0 0 0 0 0 0 0 0 0 0 0 0 0 0 0 48 0 0 0 0; 0 0 0 0 0 0 0 0 0 0 0 0 9 0 0 0 0 0 8 0; 0 0 0 0 0 0 0 0 0 0 0 0 22 0 42 34 0 0 0 25; 0 0 0 0 0 0 0 0 0 0 0 0 0 0 0 35 0 43 47 0; 0 0 0 0 0 0 0 0 0 0 0 0 0 0 0 0 0 0 0 0; 0 0 0 0 0 0 0 0 0 0 0 0 0 0 0 0 0 0 0 0; 0 0 0 0 0 0 0 0 0 0 0 0 0 0 0 0 0 0 0 0; 0 0 0 0 0 0 0 0 0 0 0 0 0 0 0 0 0 0 20 0; 0 0 0 0 0 0 0 0 0 0 0 0 0 0 0 0 0 0 0 26; 0 0 0 0 0 0 0 0 0 0 0 0 0 0 0 0 0 0 0 0; 0 0 0 0 0 0 0 0 0 0 0 0 0 0 0 0 0 0 0 0]
Q2 = [0.0 0.0 6.0 0.0 0.0 0.0 0.0 6.0 32.0 0.0 41.0 0.0 0.0 0.0 2.0 0.0 0.0 0.0 0.0 0.0; 0.0 0.0 0.0 0.0 0.0 0.0 49.0 0.0 0.0 0.0 48.0 0.0 0.0 0.0 0.0 0.0 0.0 0.0 47.0 0.0; 0.0 0.0 0.0 0.0 29.0 0.0 0.0 0.0 50.0 0.0 0.0 4.0 0.0 0.0 0.0 0.0 0.0 0.0 0.0 0.0; 0.0 0.0 0.0 0.0 0.0 44.0 33.0 48.0 0.0 3.0 44.0 0.0 0.0 9.0 0.0 0.0 0.0 47.0 0.0 0.0; 0.0 0.0 0.0 0.0 0.0 0.0 2.0 0.0 0.0 47.0 0.0 0.0 7.0 0.0 0.0 0.0 4.0 0.0 0.0 47.0; 0.0 0.0 0.0 0.0 0.0 0.0 40.0 0.0 30.0 18.0 0.0 0.0 0.0 0.0 0.0 48.0 2.0 0.0 0.0 0.0; 0.0 0.0 0.0 0.0 0.0 0.0 0.0 10.0 0.0 0.0 0.0 0.0 1.0 0.0 0.0 17.0 0.0 0.0 0.0 0.0; 0.0 0.0 0.0 0.0 0.0 0.0 0.0 0.0 0.0 0.0 0.0 3.0 0.0 36.0 0.0 0.0 0.0 8.0 0.0 0.0; 0.0 0.0 0.0 0.0 0.0 0.0 0.0 0.0 0.0 44.0 0.0 0.0 0.0 0.0 3.0 0.0 0.0 0.0 0.0 0.0; 0.0 0.0 0.0 0.0 0.0 0.0 0.0 0.0 0.0 0.0 0.0 0.0 0.0 0.0 0.0 2.0 0.0 0.0 0.0 0.0; 0.0 0.0 0.0 0.0 0.0 0.0 0.0 0.0 0.0 0.0 0.0 0.0 45.0 0.0 0.0 0.0 0.0 0.0 48.0 0.0; 0.0 0.0 0.0 0.0 0.0 0.0 0.0 0.0 0.0 0.0 0.0 0.0 45.0 0.0 7.0 8.0 0.0 0.0 0.0 12.0; 0.0 0.0 0.0 0.0 0.0 0.0 0.0 0.0 0.0 0.0 0.0 0.0 0.0 0.0 0.0 12.0 0.0 7.0 0.0 0.0; 0.0 0.0 0.0 0.0 0.0 0.0 0.0 0.0 0.0 0.0 0.0 0.0 0.0 0.0 0.0 0.0 0.0 0.0 0.0 0.0; 0.0 0.0 0.0 0.0 0.0 0.0 0.0 0.0 0.0 0.0 0.0 0.0 0.0 0.0 0.0 0.0 0.0 0.0 0.0 0.0; 0.0 0.0 0.0 0.0 0.0 0.0 0.0 0.0 0.0 0.0 0.0 0.0 0.0 0.0 0.0 0.0 0.0 0.0 0.0 0.0; 0.0 0.0 0.0 0.0 0.0 0.0 0.0 0.0 0.0 0.0 0.0 0.0 0.0 0.0 0.0 0.0 0.0 0.0 45.0 0.0; 0.0 0.0 0.0 0.0 0.0 0.0 0.0 0.0 0.0 0.0 0.0 0.0 0.0 0.0 0.0 0.0 0.0 0.0 0.0 10.0; 0.0 0.0 0.0 0.0 0.0 0.0 0.0 0.0 0.0 0.0 0.0 0.0 0.0 0.0 0.0 0.0 0.0 0.0 0.0 0.0; 0.0 0.0 0.0 0.0 0.0 0.0 0.0 0.0 0.0 0.0 0.0 0.0 0.0 0.0 0.0 0.0 0.0 0.0 0.0 0.0]
Q3 = [0 69 12 69 69 69 69 10 6 69 2 69 69 69 17 69 69 69 69 69; 0 0 69 69 69 69 0 20 69 69 1 20 69 69 14 69 69 69 2 69; 0 0 0 69 8 69 69 69 1 69 69 8 69 69 69 69 69 69 69 69; 0 0 0 0 69 6 2 9 69 7 1 23 69 1 69 69 69 1 69 69; 0 0 0 0 0 69 15 69 69 10 69 69 35 69 69 69 5 69 69 1; 0 0 0 0 0 0 7 69 15 11 69 69 69 69 69 2 13 69 69 69; 0 0 0 0 0 0 0 17 69 69 69 69 19 69 69 15 69 69 69 69; 0 0 0 0 0 0 0 0 69 69 69 7 69 9 69 69 5 14 69 69; 0 0 0 0 0 0 0 0 0 2 69 69 69 69 8 69 69 3 69 69; 0 0 0 0 0 0 0 0 0 0 69 69 69 69 69 18 69 69 69 69; 0 0 0 0 0 0 0 0 0 0 0 69 2 69 69 69 69 69 9 69; 0 0 0 0 0 0 0 0 0 0 0 0 0 69 15 17 69 69 69 20; 0 0 0 0 0 0 0 0 0 0 0 0 0 69 69 5 69 18 18 69; 0 0 0 0 0 0 0 0 0 0 0 0 0 0 69 69 69 69 69 69; 0 0 0 0 0 0 0 0 0 0 0 0 0 0 0 69 69 69 69 69; 0 0 0 0 0 0 0 0 0 0 0 0 0 0 0 0 69 69 69 69; 0 0 0 0 0 0 0 0 0 0 0 0 0 0 0 0 0 69 0 69; 0 0 0 0 0 0 0 0 0 0 0 0 0 0 0 0 0 0 69 19; 0 0 0 0 0 0 0 0 0 0 0 0 0 0 0 0 0 0 0 69; 0 0 0 0 0 0 0 0 0 0 0 0 0 0 0 0 0 0 0 0]
